lbl,CUST NO.,READY TIME,XCOORD.,YCOORD.,DEMAND,DUE DATE,SERVICE TIME
13,37,0,32,106,10,1209,90
13,55,0,26,105,40,1205,90
13,81,0,34,104,10,1212,90
13,135,0,28,107,20,1206,90
13,137,0,35,102,10,1214,90
13,138,0,36,105,20,1213,90
13,183,0,35,99,20,1216,90
13,199,0,34,108,10,1209,90
13,93,51,28,99,10,93,90
13,58,306,21,115,10,376,90
13,184,401,31,112,20,481,90
